100 152044
28 50 82 75 36 34 48 10 98 42 54 12 26 39 44 1 46 70 27 19 33 95 9 83 40 47 22 55 6 58 20 65 25 84 14 18 38 24 66 59 23 100 62 87 53 88 11 17 8 78 92 85 89 91 76 67 30 41 64 52 51 45 74 5 49 35 79 7 37 43 13 77 99 56 4 71 68 29 93 60 80 97 3 81 16 86 73 69 61 2 96 21 32 63 94 72 31 15 90 57 
